63
	Energy:     475.9246121
C         -4.57912        2.29546       -1.09088
C         -4.78862        0.96993       -0.61986
O         -3.36196        2.61585       -0.49444
H         -5.45502        2.89552       -0.73215
H         -4.53617        2.31582       -2.19605
C         -3.41739        3.95507       -0.08269
C         -2.08889        4.29247        0.38503
H         -4.12460        4.10515        0.76540
H         -3.72943        4.63395       -0.91022
N         -1.13306        3.87536       -0.64659
H         -1.91988        3.72306        1.32688
H         -2.04495        5.38824        0.61017
C          0.14803        4.26113       -0.04723
C          1.18956        3.63727       -0.83761
H          0.25219        3.85450        0.98869
H          0.29409        5.36905        0.00071
O          0.84908        2.28614       -0.87747
H          2.13793        3.81223       -0.27180
H          1.32224        4.04599       -1.85927
C          1.84526        1.62369       -1.57212
C          1.96063        0.40542       -0.82065
H          2.86312        2.09522       -1.54156
H          1.54275        1.46860       -2.61683
O          0.65134       -0.09201       -0.68341
H          2.36384        0.59045        0.20141
H          2.69074       -0.23316       -1.38489
C          0.71820       -1.45958       -0.95066
C         -0.49450       -1.99625       -0.36769
H          1.55217       -1.96645       -0.40164
H          0.86539       -1.64793       -2.03624
N         -1.61130       -1.31122       -1.02628
H         -0.44919       -1.76804        0.72453
H         -0.53989       -3.10676       -0.48669
C         -2.74682       -1.66198       -0.17625
C         -3.94796       -1.09801       -0.77984
H         -2.62195       -1.20421        0.83135
H         -2.88274       -2.76636       -0.06373
O         -3.68022        0.25341       -1.07464
H         -4.76533       -1.30528       -0.03840
H         -4.26783       -1.60243       -1.71392
H         -5.74238        0.60237       -1.07073
H         -4.84730        0.95899        0.49952
C         -1.78033       -1.92476       -2.38185
C         -1.95643       -0.82412       -3.36450
H         -2.58539       -2.69036       -2.45450
H         -0.89710       -2.49955       -2.73428
O         -0.87327        0.06000       -3.15239
H         -2.92099       -0.30304       -3.22931
H         -1.97282       -1.30194       -4.37249
C         -0.71748        0.85640       -4.30996
C         -1.61008        2.03705       -4.20980
H         -0.91695        0.31656       -5.26590
H          0.33717        1.17950       -4.39734
O         -1.19473        2.71213       -3.06270
H         -2.68047        1.73424       -4.15264
H         -1.44385        2.65046       -5.12611
C         -1.96284        3.88125       -2.94578
C         -1.32641        4.70764       -1.88137
H         -3.00975        3.65462       -2.73923
H         -1.94874        4.49163       -3.88168
H         -1.87458        5.66177       -1.71044
H         -0.37985        5.05292       -2.33987
Eu        -1.38650        1.30033       -1.17998
